data/rand/rand_045.gr
p tdp 15 61
1 3
1 5
1 7
1 8
1 9
1 10
1 15
2 3
2 4
2 5
2 6
2 9
2 10
2 12
2 13
2 14
2 15
3 4
3 5
3 6
3 8
3 10
3 12
3 13
3 14
4 5
4 6
4 7
4 8
4 12
4 15
5 6
5 10
5 12
5 14
5 15
6 7
6 9
6 10
6 12
6 14
7 8
7 10
7 11
7 13
8 10
8 13
8 14
9 11
9 12
9 13
9 15
10 13
10 14
11 12
11 15
12 14
12 15
13 14
13 15
14 15
