solutions/best/rand/rand_045.sol
11
10
0
2
12
3
15
5
7
8
14
12
14
10
6
9
